(set-logic QF_LIA)
(declare-fun x0 () Int)
(declare-fun x1 () Int)
(declare-fun x2 () Int)
(declare-fun x3 () Int)
(declare-fun x4 () Int)
(declare-fun x5 () Int)
(declare-fun x6 () Int)
(declare-fun x7 () Int)
(declare-fun x8 () Int)
(declare-fun x9 () Int)
(declare-fun A0 () Bool)
(declare-fun A1 () Bool)
(declare-fun A2 () Bool)
(declare-fun A3 () Bool)
(declare-fun A4 () Bool)
(declare-fun A5 () Bool)
(declare-fun A6 () Bool)
(declare-fun A7 () Bool)
(declare-fun A8 () Bool)
(declare-fun A9 () Bool)
(assert (let ((.def_0 (* (- 1) x9))) (let ((.def_1 (< .def_0 1))) (let ((.def_2 (* 1 x8))) (let ((.def_3 (< .def_2 (- 1)))) (let ((.def_4 (not .def_3))) (let ((.def_5 (or .def_4 .def_1))) (let ((.def_6 (not .def_5))) (let ((.def_7 (not .def_1))) (let ((.def_8 (* (- 1) x5))) (let ((.def_9 (< .def_8 1))) (let ((.def_10 (or .def_9 .def_7))) (let ((.def_11 (or .def_10 .def_6))) (let ((.def_12 (not .def_11))) (let ((.def_13 (not A0))) (let ((.def_14 (< .def_2 1))) (let ((.def_15 (or .def_14 .def_13))) (let ((.def_16 (or A9 A5))) (let ((.def_17 (and .def_16 .def_15))) (let ((.def_18 (not .def_17))) (let ((.def_19 (and .def_18 .def_12))) (let ((.def_20 (not .def_19))) (let ((.def_21 (* (- 1) x7))) (let ((.def_22 (< .def_21 1))) (let ((.def_23 (not .def_22))) (let ((.def_24 (* 1 x7))) (let ((.def_25 (* (- 1) x2))) (let ((.def_26 (+ .def_25 .def_24))) (let ((.def_27 (< .def_26 1))) (let ((.def_28 (and .def_27 .def_23))) (let ((.def_29 (not .def_28))) (let ((.def_30 (or A9 A1))) (let ((.def_31 (or .def_30 .def_29))) (let ((.def_32 (* 1 x9))) (let ((.def_33 (* (- 1) x8))) (let ((.def_34 (+ .def_33 .def_32))) (let ((.def_35 (< .def_34 1))) (let ((.def_36 (or .def_35 A3))) (let ((.def_37 (* (- 1) x4))) (let ((.def_38 (+ .def_8 .def_37))) (let ((.def_39 (< .def_38 1))) (let ((.def_40 (not A5))) (let ((.def_41 (and .def_40 .def_39))) (let ((.def_42 (and .def_41 .def_36))) (let ((.def_43 (not .def_42))) (let ((.def_44 (or .def_43 .def_31))) (let ((.def_45 (not .def_44))) (let ((.def_46 (and .def_45 .def_20))) (let ((.def_47 (not .def_46))) (let ((.def_48 (not A8))) (let ((.def_49 (+ .def_2 .def_24))) (let ((.def_50 (< .def_49 1))) (let ((.def_51 (not .def_50))) (let ((.def_52 (and .def_51 .def_48))) (let ((.def_53 (or A2 .def_40))) (let ((.def_54 (and .def_53 .def_52))) (let ((.def_55 (not .def_54))) (let ((.def_56 (* 1 x5))) (let ((.def_57 (+ .def_56 .def_21))) (let ((.def_58 (< .def_57 (- 1)))) (let ((.def_59 (not .def_58))) (let ((.def_60 (or A0 .def_59))) (let ((.def_61 (not .def_60))) (let ((.def_62 (not A4))) (let ((.def_63 (and .def_62 A0))) (let ((.def_64 (not .def_63))) (let ((.def_65 (or .def_64 .def_61))) (let ((.def_66 (not .def_65))) (let ((.def_67 (and .def_66 .def_55))) (let ((.def_68 (and A4 A9))) (let ((.def_69 (or A4 .def_48))) (let ((.def_70 (or .def_69 .def_68))) (let ((.def_71 (not .def_70))) (let ((.def_72 (* 1 x0))) (let ((.def_73 (< .def_72 (- 1)))) (let ((.def_74 (not .def_73))) (let ((.def_75 (not A7))) (let ((.def_76 (or .def_75 .def_74))) (let ((.def_77 (not A6))) (let ((.def_78 (not A1))) (let ((.def_79 (or .def_78 .def_77))) (let ((.def_80 (not .def_79))) (let ((.def_81 (or .def_80 .def_76))) (let ((.def_82 (= .def_81 .def_71))) (let ((.def_83 (not .def_82))) (let ((.def_84 (and .def_83 .def_67))) (let ((.def_85 (or .def_84 .def_47))) (let ((.def_86 (not .def_85))) (let ((.def_87 (or .def_75 .def_13))) (let ((.def_88 (* 1 x3))) (let ((.def_89 (+ .def_33 .def_88))) (let ((.def_90 (< .def_89 1))) (let ((.def_91 (not A2))) (let ((.def_92 (or .def_91 .def_90))) (let ((.def_93 (or .def_92 .def_87))) (let ((.def_94 (< .def_37 1))) (let ((.def_95 (or .def_94 A7))) (let ((.def_96 (* 1 x6))) (let ((.def_97 (< .def_96 1))) (let ((.def_98 (not .def_97))) (let ((.def_99 (and A6 .def_98))) (let ((.def_100 (not .def_99))) (let ((.def_101 (and .def_100 .def_95))) (let ((.def_102 (and .def_101 .def_93))) (let ((.def_103 (< .def_72 1))) (let ((.def_104 (not .def_103))) (let ((.def_105 (or A1 .def_104))) (let ((.def_106 (+ .def_33 .def_24))) (let ((.def_107 (< .def_106 (- 1)))) (let ((.def_108 (or .def_13 .def_107))) (let ((.def_109 (not .def_108))) (let ((.def_110 (and .def_109 .def_105))) (let ((.def_111 (not .def_110))) (let ((.def_112 (< .def_33 (- 1)))) (let ((.def_113 (or .def_91 .def_112))) (let ((.def_114 (not .def_113))) (let ((.def_115 (* 1 x2))) (let ((.def_116 (+ .def_115 .def_24))) (let ((.def_117 (< .def_116 1))) (let ((.def_118 (or A5 .def_117))) (let ((.def_119 (not .def_118))) (let ((.def_120 (or .def_119 .def_114))) (let ((.def_121 (not .def_120))) (let ((.def_122 (or .def_121 .def_111))) (let ((.def_123 (not .def_122))) (let ((.def_124 (and .def_123 .def_102))) (let ((.def_125 (not A3))) (let ((.def_126 (< .def_115 1))) (let ((.def_127 (not .def_126))) (let ((.def_128 (or .def_127 .def_125))) (let ((.def_129 (not .def_128))) (let ((.def_130 (* (- 1) x3))) (let ((.def_131 (< .def_130 (- 1)))) (let ((.def_132 (or .def_4 .def_131))) (let ((.def_133 (not .def_132))) (let ((.def_134 (and .def_133 .def_129))) (let ((.def_135 (* (- 1) x0))) (let ((.def_136 (+ .def_25 .def_135))) (let ((.def_137 (< .def_136 (- 1)))) (let ((.def_138 (not .def_137))) (let ((.def_139 (or .def_77 .def_138))) (let ((.def_140 (not .def_139))) (let ((.def_141 (or A4 A5))) (let ((.def_142 (not .def_141))) (let ((.def_143 (= .def_142 .def_140))) (let ((.def_144 (not .def_143))) (let ((.def_145 (or .def_144 .def_134))) (let ((.def_146 (not .def_145))) (let ((.def_147 (< .def_88 1))) (let ((.def_148 (not .def_147))) (let ((.def_149 (+ .def_21 .def_56))) (let ((.def_150 (< .def_149 (- 1)))) (let ((.def_151 (not .def_150))) (let ((.def_152 (and .def_151 .def_148))) (let ((.def_153 (not .def_152))) (let ((.def_154 (or A7 A0))) (let ((.def_155 (not .def_154))) (let ((.def_156 (and .def_155 .def_153))) (let ((.def_157 (and A8 .def_77))) (let ((.def_158 (not .def_157))) (let ((.def_159 (+ .def_96 .def_72))) (let ((.def_160 (< .def_159 (- 1)))) (let ((.def_161 (not .def_160))) (let ((.def_162 (and .def_161 .def_13))) (let ((.def_163 (and .def_162 .def_158))) (let ((.def_164 (or .def_163 .def_156))) (let ((.def_165 (or .def_164 .def_146))) (let ((.def_166 (not .def_165))) (let ((.def_167 (or .def_166 .def_124))) (let ((.def_168 (not .def_167))) (let ((.def_169 (and .def_168 .def_86))) (let ((.def_170 (+ .def_115 .def_72))) (let ((.def_171 (< .def_170 (- 1)))) (let ((.def_172 (or .def_171 .def_40))) (let ((.def_173 (or A0 .def_40))) (let ((.def_174 (or .def_173 .def_172))) (let ((.def_175 (< .def_32 (- 1)))) (let ((.def_176 (not .def_175))) (let ((.def_177 (or .def_176 A4))) (let ((.def_178 (not .def_177))) (let ((.def_179 (and .def_91 A7))) (let ((.def_180 (and .def_179 .def_178))) (let ((.def_181 (= .def_180 .def_174))) (let ((.def_182 (not .def_181))) (let ((.def_183 (+ .def_88 .def_56))) (let ((.def_184 (< .def_183 (- 1)))) (let ((.def_185 (not A9))) (let ((.def_186 (and .def_185 .def_184))) (let ((.def_187 (not .def_186))) (let ((.def_188 (* (- 1) x6))) (let ((.def_189 (+ .def_88 .def_188))) (let ((.def_190 (< .def_189 1))) (let ((.def_191 (not .def_190))) (let ((.def_192 (and .def_13 .def_191))) (let ((.def_193 (or .def_192 .def_187))) (let ((.def_194 (not .def_193))) (let ((.def_195 (* 1 x4))) (let ((.def_196 (+ .def_88 .def_195))) (let ((.def_197 (< .def_196 (- 1)))) (let ((.def_198 (= .def_77 .def_197))) (let ((.def_199 (and .def_73 .def_13))) (let ((.def_200 (and .def_199 .def_198))) (let ((.def_201 (not .def_200))) (let ((.def_202 (or .def_201 .def_194))) (let ((.def_203 (and .def_202 .def_182))) (let ((.def_204 (not .def_203))) (let ((.def_205 (or A2 A8))) (let ((.def_206 (and .def_125 A7))) (let ((.def_207 (not .def_206))) (let ((.def_208 (or .def_207 .def_205))) (let ((.def_209 (not .def_208))) (let ((.def_210 (or .def_91 A8))) (let ((.def_211 (not .def_210))) (let ((.def_212 (< .def_195 1))) (let ((.def_213 (* (- 1) x1))) (let ((.def_214 (< .def_213 1))) (let ((.def_215 (not .def_214))) (let ((.def_216 (or .def_215 .def_212))) (let ((.def_217 (or .def_216 .def_211))) (let ((.def_218 (not .def_217))) (let ((.def_219 (and .def_218 .def_209))) (let ((.def_220 (not .def_219))) (let ((.def_221 (and .def_77 .def_98))) (let ((.def_222 (+ .def_25 .def_56))) (let ((.def_223 (< .def_222 (- 1)))) (let ((.def_224 (not .def_223))) (let ((.def_225 (< .def_0 (- 1)))) (let ((.def_226 (or .def_225 .def_224))) (let ((.def_227 (or .def_226 .def_221))) (let ((.def_228 (not .def_227))) (let ((.def_229 (< .def_213 (- 1)))) (let ((.def_230 (and A7 .def_229))) (let ((.def_231 (not .def_230))) (let ((.def_232 (+ .def_115 .def_0))) (let ((.def_233 (< .def_232 (- 1)))) (let ((.def_234 (or .def_233 .def_125))) (let ((.def_235 (not .def_234))) (let ((.def_236 (and .def_235 .def_231))) (let ((.def_237 (= .def_236 .def_228))) (let ((.def_238 (not .def_237))) (let ((.def_239 (or .def_238 .def_220))) (let ((.def_240 (not .def_239))) (let ((.def_241 (and .def_240 .def_204))) (let ((.def_242 (< .def_33 1))) (let ((.def_243 (not .def_242))) (let ((.def_244 (or .def_243 .def_229))) (let ((.def_245 (< .def_135 1))) (let ((.def_246 (not .def_245))) (let ((.def_247 (+ .def_24 .def_96))) (let ((.def_248 (< .def_247 1))) (let ((.def_249 (not .def_248))) (let ((.def_250 (or .def_249 .def_246))) (let ((.def_251 (not .def_250))) (let ((.def_252 (or .def_251 .def_244))) (let ((.def_253 (and .def_125 A0))) (let ((.def_254 (not .def_253))) (let ((.def_255 (+ .def_96 .def_0))) (let ((.def_256 (< .def_255 (- 1)))) (let ((.def_257 (+ .def_195 .def_21))) (let ((.def_258 (< .def_257 (- 1)))) (let ((.def_259 (not .def_258))) (let ((.def_260 (= .def_259 .def_256))) (let ((.def_261 (not .def_260))) (let ((.def_262 (or .def_261 .def_254))) (let ((.def_263 (not .def_262))) (let ((.def_264 (or .def_263 .def_252))) (let ((.def_265 (not .def_264))) (let ((.def_266 (+ .def_21 .def_96))) (let ((.def_267 (< .def_266 1))) (let ((.def_268 (not .def_267))) (let ((.def_269 (or .def_77 .def_268))) (let ((.def_270 (and A0 A9))) (let ((.def_271 (and .def_270 .def_269))) (let ((.def_272 (* 1 x1))) (let ((.def_273 (+ .def_25 .def_272))) (let ((.def_274 (< .def_273 (- 1)))) (let ((.def_275 (not .def_274))) (let ((.def_276 (or .def_275 .def_13))) (let ((.def_277 (+ .def_130 .def_0))) (let ((.def_278 (< .def_277 1))) (let ((.def_279 (not .def_278))) (let ((.def_280 (or .def_279 .def_13))) (let ((.def_281 (or .def_280 .def_276))) (let ((.def_282 (not .def_281))) (let ((.def_283 (or .def_282 .def_271))) (let ((.def_284 (and .def_283 .def_265))) (let ((.def_285 (or .def_91 A0))) (let ((.def_286 (+ .def_135 .def_24))) (let ((.def_287 (< .def_286 (- 1)))) (let ((.def_288 (not .def_287))) (let ((.def_289 (+ .def_37 .def_2))) (let ((.def_290 (< .def_289 (- 1)))) (let ((.def_291 (or .def_290 .def_288))) (let ((.def_292 (not .def_291))) (let ((.def_293 (or .def_292 .def_285))) (let ((.def_294 (not .def_293))) (let ((.def_295 (= .def_212 .def_131))) (let ((.def_296 (and .def_185 .def_75))) (let ((.def_297 (not .def_296))) (let ((.def_298 (or .def_297 .def_295))) (let ((.def_299 (not .def_298))) (let ((.def_300 (and .def_299 .def_294))) (let ((.def_301 (not .def_300))) (let ((.def_302 (< .def_37 (- 1)))) (let ((.def_303 (not .def_302))) (let ((.def_304 (and .def_303 .def_13))) (let ((.def_305 (< .def_135 (- 1)))) (let ((.def_306 (not .def_305))) (let ((.def_307 (+ .def_213 .def_0))) (let ((.def_308 (< .def_307 1))) (let ((.def_309 (and .def_308 .def_306))) (let ((.def_310 (not .def_309))) (let ((.def_311 (or .def_310 .def_304))) (let ((.def_312 (and A0 .def_78))) (let ((.def_313 (+ .def_32 .def_8))) (let ((.def_314 (< .def_313 (- 1)))) (let ((.def_315 (and A8 .def_314))) (let ((.def_316 (and .def_315 .def_312))) (let ((.def_317 (not .def_316))) (let ((.def_318 (or .def_317 .def_311))) (let ((.def_319 (or .def_318 .def_301))) (let ((.def_320 (not .def_319))) (let ((.def_321 (or .def_320 .def_284))) (let ((.def_322 (not .def_321))) (let ((.def_323 (or .def_322 .def_241))) (let ((.def_324 (or .def_323 .def_169))) (let ((.def_325 (not .def_324))) (let ((.def_326 (<= x9 1))) (let ((.def_327 (<= 0 x9))) (let ((.def_328 (<= x8 1))) (let ((.def_329 (<= 0 x8))) (let ((.def_330 (<= x7 1))) (let ((.def_331 (<= 0 x7))) (let ((.def_332 (<= x6 1))) (let ((.def_333 (<= 0 x6))) (let ((.def_334 (<= x5 1))) (let ((.def_335 (<= 0 x5))) (let ((.def_336 (<= x4 1))) (let ((.def_337 (<= 0 x4))) (let ((.def_338 (<= x3 1))) (let ((.def_339 (<= 0 x3))) (let ((.def_340 (<= x2 1))) (let ((.def_341 (<= 0 x2))) (let ((.def_342 (<= x1 1))) (let ((.def_343 (<= 0 x1))) (let ((.def_344 (<= x0 1))) (let ((.def_345 (<= 0 x0))) (let ((.def_346 (and .def_345 .def_344 .def_343 .def_342 .def_341 .def_340 .def_339 .def_338 .def_337 .def_336 .def_335 .def_334 .def_333 .def_332 .def_331 .def_330 .def_329 .def_328 .def_327 .def_326 .def_325))) .def_346))))))))))))))))))))))))))))))))))))))))))))))))))))))))))))))))))))))))))))))))))))))))))))))))))))))))))))))))))))))))))))))))))))))))))))))))))))))))))))))))))))))))))))))))))))))))))))))))))))))))))))))))))))))))))))))))))))))))))))))))))))))))))))))))))))))))))))))))))))))))))))))))))))))))))))))))))))))))))))))))))))))))))))))))))))))))))))
(check-sat)
